WARNING: for repeatability, setting FPU to use double precision
============================[ Problem Statistics ]=============================
|                                                                             |
|  Number of variables:        226268                                         |
|  Number of clauses:          516478                                         |
|  Parse time:                   0.30 s                                       |
|                                                                             |
============================[ Search Statistics ]==============================
| Conflicts |          ORIGINAL         |          LEARNT          | Progress |
|           |    Vars  Clauses Literals |    Limit  Clauses Lit/Cl |          |
===============================================================================
|       100 |  123680   493532  1110144 |   180961      100      9 | 45.339 % |
|       250 |  123680   493532  1110144 |   199057      250     26 | 45.339 % |
|       475 |  123680   493532  1110144 |   218963      475     24 | 45.339 % |
|       812 |  123680   493532  1110144 |   240860      812     28 | 45.339 % |
===============================================================================
restarts              : 7
conflicts             : 1157           (767 /sec)
decisions             : 21354          (0.00 % random) (14160 /sec)
propagations          : 4245384        (2815066 /sec)
conflict literals     : 37359          (5.25 % deleted)
Memory used           : 57.00 MB
CPU time              : 1.50809 s

SATISFIABLE
